p cnf 243 714
-243 -211 -32 0
-243 32 211 0
-242 -210 -31 0
-242 31 210 0
-241 -209 -30 0
-241 30 209 0
-240 -208 -29 0
-240 29 208 0
-239 -207 -28 0
-239 28 207 0
-238 -206 -27 0
-238 27 206 0
-237 -205 -26 0
-237 26 205 0
-236 -204 -25 0
-236 25 204 0
-235 -203 -24 0
-235 24 203 0
-234 -202 -23 0
-234 23 202 0
-233 -201 -22 0
-233 22 201 0
-232 -200 -21 0
-232 21 200 0
-231 -199 -20 0
-231 20 199 0
-230 -198 -19 0
-230 19 198 0
-229 -197 -18 0
-229 18 197 0
-228 -196 -17 0
-228 17 196 0
-227 -195 -16 0
-227 16 195 0
-226 -194 -15 0
-226 15 194 0
-225 -193 -14 0
-225 14 193 0
-224 -192 -13 0
-224 13 192 0
-223 -191 -12 0
-223 12 191 0
-222 -190 -11 0
-222 11 190 0
-221 -189 -10 0
-221 10 189 0
-220 -188 -9 0
-220 9 188 0
-219 -187 -8 0
-219 8 187 0
-218 -186 -7 0
-218 7 186 0
-217 -185 -6 0
-217 6 185 0
-216 -184 -5 0
-216 5 184 0
-215 -183 -4 0
-215 4 183 0
-214 -182 -3 0
-214 3 182 0
-213 -181 -2 0
-213 2 181 0
-212 -180 -1 0
-212 1 180 0
-211 32 243 0
-211 121 0
-211 179 0
-210 31 242 0
-210 120 0
-210 179 0
-209 30 241 0
-209 119 0
-209 179 0
-208 29 240 0
-208 118 0
-208 179 0
-207 28 239 0
-207 121 0
-207 178 0
-206 27 238 0
-206 120 0
-206 178 0
-205 26 237 0
-205 119 0
-205 178 0
-204 25 236 0
-204 118 0
-204 178 0
-203 24 235 0
-203 121 0
-203 177 0
-202 23 234 0
-202 120 0
-202 177 0
-201 22 233 0
-201 119 0
-201 177 0
-200 21 232 0
-200 118 0
-200 177 0
-199 20 231 0
-199 121 0
-199 176 0
-198 19 230 0
-198 120 0
-198 176 0
-197 18 229 0
-197 119 0
-197 176 0
-196 17 228 0
-196 118 0
-196 176 0
-195 16 227 0
-195 117 0
-195 175 0
-194 15 226 0
-194 116 0
-194 175 0
-193 14 225 0
-193 115 0
-193 175 0
-192 13 224 0
-192 114 0
-192 175 0
-191 12 223 0
-191 117 0
-191 174 0
-190 11 222 0
-190 116 0
-190 174 0
-189 10 221 0
-189 115 0
-189 174 0
-188 9 220 0
-188 114 0
-188 174 0
-187 8 219 0
-187 117 0
-187 173 0
-186 7 218 0
-186 116 0
-186 173 0
-185 6 217 0
-185 115 0
-185 173 0
-184 5 216 0
-184 114 0
-184 173 0
-183 4 215 0
-183 117 0
-183 172 0
-182 3 214 0
-182 116 0
-182 172 0
-181 2 213 0
-181 115 0
-181 172 0
-180 1 212 0
-180 114 0
-180 172 0
-179 -121 211 0
-179 -120 210 0
-179 -119 209 0
-179 -118 208 0
-179 115 0
-179 117 0
-179 160 0
-179 161 0
-179 171 0
-178 -121 207 0
-178 -120 206 0
-178 -119 205 0
-178 -118 204 0
-178 115 0
-178 116 0
-178 158 0
-178 159 0
-178 171 0
-177 -121 203 0
-177 -120 202 0
-177 -119 201 0
-177 -118 200 0
-177 114 0
-177 117 0
-177 156 0
-177 157 0
-177 171 0
-176 -121 199 0
-176 -120 198 0
-176 -119 197 0
-176 -118 196 0
-176 114 0
-176 116 0
-176 154 0
-176 155 0
-176 171 0
-175 -117 195 0
-175 -116 194 0
-175 -115 193 0
-175 -114 192 0
-175 119 0
-175 121 0
-175 140 0
-175 141 0
-175 170 0
-174 -117 191 0
-174 -116 190 0
-174 -115 189 0
-174 -114 188 0
-174 119 0
-174 120 0
-174 138 0
-174 139 0
-174 170 0
-173 -117 187 0
-173 -116 186 0
-173 -115 185 0
-173 -114 184 0
-173 118 0
-173 121 0
-173 136 0
-173 137 0
-173 170 0
-172 -117 183 0
-172 -116 182 0
-172 -115 181 0
-172 -114 180 0
-172 118 0
-172 120 0
-172 134 0
-172 135 0
-172 170 0
-171 -161 -160 -117 -115 179 0
-171 -159 -158 -116 -115 178 0
-171 -157 -156 -117 -114 177 0
-171 -155 -154 -116 -114 176 0
-171 166 167 168 169 0
-170 -141 -140 -121 -119 175 0
-170 -139 -138 -120 -119 174 0
-170 -137 -136 -121 -118 173 0
-170 -135 -134 -120 -118 172 0
-170 162 163 164 165 0
-169 118 0
-169 151 0
-169 152 0
-169 153 0
-169 171 0
-168 119 0
-168 148 0
-168 149 0
-168 150 0
-168 171 0
-167 120 0
-167 145 0
-167 146 0
-167 147 0
-167 171 0
-166 121 0
-166 142 0
-166 143 0
-166 144 0
-166 171 0
-165 114 0
-165 131 0
-165 132 0
-165 133 0
-165 170 0
-164 115 0
-164 128 0
-164 129 0
-164 130 0
-164 170 0
-163 116 0
-163 125 0
-163 126 0
-163 127 0
-163 170 0
-162 117 0
-162 122 0
-162 123 0
-162 124 0
-162 170 0
-161 -116 0
-160 -114 0
-159 -117 0
-158 -114 0
-157 -116 0
-156 -115 0
-155 -117 0
-154 -115 0
-153 -152 -151 -118 169 0
-153 -121 0
-152 -120 0
-151 -119 0
-150 -149 -148 -119 168 0
-150 -121 0
-149 -120 0
-148 -118 0
-147 -146 -145 -120 167 0
-147 -121 0
-146 -119 0
-145 -118 0
-144 -143 -142 -121 166 0
-144 -120 0
-143 -119 0
-142 -118 0
-141 -120 0
-140 -118 0
-139 -121 0
-138 -118 0
-137 -120 0
-136 -119 0
-135 -121 0
-134 -119 0
-133 -132 -131 -114 165 0
-133 -117 0
-132 -116 0
-131 -115 0
-130 -129 -128 -115 164 0
-130 -117 0
-129 -116 0
-128 -114 0
-127 -126 -125 -116 163 0
-127 -117 0
-126 -115 0
-125 -114 0
-124 -123 -122 -117 162 0
-124 -116 0
-123 -115 0
-122 -114 0
-121 -113 -97 0
-121 97 113 0
-120 -112 -96 0
-120 96 112 0
-119 -111 -95 0
-119 95 111 0
-118 -110 -94 0
-118 94 110 0
-117 -109 -93 0
-117 93 109 0
-116 -108 -92 0
-116 92 108 0
-115 -107 -91 0
-115 91 107 0
-114 -106 -90 0
-114 90 106 0
-113 -101 -65 0
-113 65 101 0
-113 97 121 0
-112 -100 -64 0
-112 64 100 0
-112 96 120 0
-111 -99 -63 0
-111 63 99 0
-111 95 119 0
-110 -98 -62 0
-110 62 98 0
-110 94 118 0
-109 -105 -61 0
-109 61 105 0
-109 93 117 0
-108 -104 -60 0
-108 60 104 0
-108 92 116 0
-107 -103 -59 0
-107 59 103 0
-107 91 115 0
-106 -102 -58 0
-106 58 102 0
-106 90 114 0
-105 -89 -87 0
-105 61 109 0
-105 87 89 0
-104 -88 -86 0
-104 60 108 0
-104 86 88 0
-103 -89 -88 0
-103 59 107 0
-103 88 89 0
-102 -87 -86 0
-102 58 106 0
-102 86 87 0
-101 -85 -83 0
-101 65 113 0
-101 83 85 0
-100 -84 -82 0
-100 64 112 0
-100 82 84 0
-99 -85 -84 0
-99 63 111 0
-99 84 85 0
-98 -83 -82 0
-98 62 110 0
-98 82 83 0
-97 -81 -80 0
-97 80 81 0
-97 113 121 0
-96 -79 -78 0
-96 78 79 0
-96 112 120 0
-95 -77 -76 0
-95 76 77 0
-95 111 119 0
-94 -75 -74 0
-94 74 75 0
-94 110 118 0
-93 -73 -72 0
-93 72 73 0
-93 109 117 0
-92 -71 -70 0
-92 70 71 0
-92 108 116 0
-91 -69 -68 0
-91 68 69 0
-91 107 115 0
-90 -67 -66 0
-90 66 67 0
-90 106 114 0
-89 -57 -56 0
-89 56 57 0
-89 87 105 0
-89 88 103 0
-88 -55 -54 0
-88 54 55 0
-88 86 104 0
-88 89 103 0
-87 -53 -52 0
-87 52 53 0
-87 86 102 0
-87 89 105 0
-86 -51 -50 0
-86 50 51 0
-86 87 102 0
-86 88 104 0
-85 -49 -48 0
-85 48 49 0
-85 83 101 0
-85 84 99 0
-84 -47 -46 0
-84 46 47 0
-84 82 100 0
-84 85 99 0
-83 -45 -44 0
-83 44 45 0
-83 82 98 0
-83 85 101 0
-82 -43 -42 0
-82 42 43 0
-82 83 98 0
-82 84 100 0
-81 -32 -28 0
-81 28 32 0
-81 80 97 0
-80 -24 -20 0
-80 20 24 0
-80 81 97 0
-79 -31 -27 0
-79 27 31 0
-79 78 96 0
-78 -23 -19 0
-78 19 23 0
-78 79 96 0
-77 -30 -26 0
-77 26 30 0
-77 76 95 0
-76 -22 -18 0
-76 18 22 0
-76 77 95 0
-75 -29 -25 0
-75 25 29 0
-75 74 94 0
-74 -21 -17 0
-74 17 21 0
-74 75 94 0
-73 -16 -12 0
-73 12 16 0
-73 72 93 0
-72 -8 -4 0
-72 4 8 0
-72 73 93 0
-71 -15 -11 0
-71 11 15 0
-71 70 92 0
-70 -7 -3 0
-70 3 7 0
-70 71 92 0
-69 -14 -10 0
-69 10 14 0
-69 68 91 0
-68 -6 -2 0
-68 2 6 0
-68 69 91 0
-67 -13 -9 0
-67 9 13 0
-67 66 90 0
-66 -5 -1 0
-66 1 5 0
-66 67 90 0
-65 40 0
-65 41 0
-65 101 113 0
-64 39 0
-64 41 0
-64 100 112 0
-63 38 0
-63 41 0
-63 99 111 0
-62 37 0
-62 41 0
-62 98 110 0
-61 36 0
-61 41 0
-61 105 109 0
-60 35 0
-60 41 0
-60 104 108 0
-59 34 0
-59 41 0
-59 103 107 0
-58 33 0
-58 41 0
-58 102 106 0
-57 -32 -31 0
-57 31 32 0
-57 56 89 0
-56 -30 -29 0
-56 29 30 0
-56 57 89 0
-55 -28 -27 0
-55 27 28 0
-55 54 88 0
-54 -26 -25 0
-54 25 26 0
-54 55 88 0
-53 -24 -23 0
-53 23 24 0
-53 52 87 0
-52 -22 -21 0
-52 21 22 0
-52 53 87 0
-51 -20 -19 0
-51 19 20 0
-51 50 86 0
-50 -18 -17 0
-50 17 18 0
-50 51 86 0
-49 -16 -15 0
-49 15 16 0
-49 48 85 0
-48 -14 -13 0
-48 13 14 0
-48 49 85 0
-47 -12 -11 0
-47 11 12 0
-47 46 84 0
-46 -10 -9 0
-46 9 10 0
-46 47 84 0
-45 -8 -7 0
-45 7 8 0
-45 44 83 0
-44 -6 -5 0
-44 5 6 0
-44 45 83 0
-43 -4 -3 0
-43 3 4 0
-43 42 82 0
-42 -2 -1 0
-42 1 2 0
-42 43 82 0
-41 -40 65 0
-41 -39 64 0
-41 -38 63 0
-41 -37 62 0
-41 -36 61 0
-41 -35 60 0
-41 -34 59 0
-41 -33 58 0
-32 28 81 0
-32 31 57 0
-32 211 243 0
-31 27 79 0
-31 32 57 0
-31 210 242 0
-30 26 77 0
-30 29 56 0
-30 209 241 0
-29 25 75 0
-29 30 56 0
-29 208 240 0
-28 27 55 0
-28 32 81 0
-28 207 239 0
-27 28 55 0
-27 31 79 0
-27 206 238 0
-26 25 54 0
-26 30 77 0
-26 205 237 0
-25 26 54 0
-25 29 75 0
-25 204 236 0
-24 20 80 0
-24 23 53 0
-24 203 235 0
-23 19 78 0
-23 24 53 0
-23 202 234 0
-22 18 76 0
-22 21 52 0
-22 201 233 0
-21 17 74 0
-21 22 52 0
-21 200 232 0
-20 19 51 0
-20 24 80 0
-20 199 231 0
-19 20 51 0
-19 23 78 0
-19 198 230 0
-18 17 50 0
-18 22 76 0
-18 197 229 0
-17 18 50 0
-17 21 74 0
-17 196 228 0
-16 12 73 0
-16 15 49 0
-16 195 227 0
-15 11 71 0
-15 16 49 0
-15 194 226 0
-14 10 69 0
-14 13 48 0
-14 193 225 0
-13 9 67 0
-13 14 48 0
-13 192 224 0
-12 11 47 0
-12 16 73 0
-12 191 223 0
-11 12 47 0
-11 15 71 0
-11 190 222 0
-10 9 46 0
-10 14 69 0
-10 189 221 0
-9 10 46 0
-9 13 67 0
-9 188 220 0
-8 4 72 0
-8 7 45 0
-8 187 219 0
-7 3 70 0
-7 8 45 0
-7 186 218 0
-6 2 68 0
-6 5 44 0
-6 185 217 0
-5 1 66 0
-5 6 44 0
-5 184 216 0
-4 3 43 0
-4 8 72 0
-4 183 215 0
-3 4 43 0
-3 7 70 0
-3 182 214 0
-2 1 42 0
-2 6 68 0
-2 181 213 0
-1 2 42 0
-1 5 66 0
-1 180 212 0
114 122 0
114 125 0
114 128 0
114 158 0
114 160 0
115 123 0
115 126 0
115 131 0
115 154 0
115 156 0
116 124 0
116 129 0
116 132 0
116 157 0
116 161 0
117 127 0
117 130 0
117 133 0
117 155 0
117 159 0
118 138 0
118 140 0
118 142 0
118 145 0
118 148 0
119 134 0
119 136 0
119 143 0
119 146 0
119 151 0
120 137 0
120 141 0
120 144 0
120 149 0
120 152 0
121 135 0
121 139 0
121 147 0
121 150 0
121 153 0
